p edge 16 42
e 1 2
e 1 5
e 1 6
e 2 3
e 2 5
e 2 6
e 2 7
e 3 4
e 3 6
e 3 7
e 3 8
e 4 7
e 4 8
e 5 6
e 5 9
e 5 10
e 6 7
e 6 9
e 6 10
e 6 11
e 7 8
e 7 10
e 7 11
e 7 12
e 8 11
e 8 12
e 9 10
e 9 13
e 9 14
e 10 11
e 10 13
e 10 14
e 10 15
e 11 12
e 11 14
e 11 15
e 11 16
e 12 15
e 12 16
e 13 14
e 14 15
e 15 16
